NAME : CMT11X
TYPE : MVRPB
DIMENSION : 121
VEHICLES : 4
CAPACITY : 20000
EDGE_WEIGHT_TYPE : EXACT_2D
NODE_COORD_SECTION
1 10 45
2 25 1
3 25 3
4 31 5
5 32 5
6 31 7
7 32 9
8 34 9
9 46 9
10 35 7
11 34 6
12 35 5
13 47 6
14 40 5
15 39 3
16 36 3
17 73 6
18 73 8
19 24 36
20 76 6
21 76 10
22 76 13
23 78 3
24 78 9
25 79 3
26 79 5
27 79 11
28 82 3
29 82 7
30 90 15
31 84 3
32 84 5
33 84 9
34 85 1
35 87 5
36 85 8
37 87 7
38 86 41
39 86 44
40 86 46
41 85 55
42 89 43
43 89 46
44 89 52
45 92 42
46 92 52
47 94 42
48 94 44
49 94 48
50 96 42
51 99 46
52 99 50
53 83 80
54 83 83
55 85 81
56 85 85
57 85 89
58 87 80
59 87 86
60 90 77
61 90 88
62 93 82
63 93 84
64 93 89
65 94 86
66 95 80
67 99 89
68 37 83
69 50 80
70 35 85
71 35 87
72 44 86
73 46 89
74 46 83
75 46 87
76 46 89
77 48 83
78 50 85
79 50 88
80 54 86
81 54 90
82 10 35
83 10 40
84 18 30
85 17 35
86 16 38
87 14 40
88 15 42
89 11 42
90 18 40
91 21 39
92 20 40
93 18 41
94 20 44
95 22 44
96 16 45
97 20 45
98 25 45
99 30 55
100 20 50
101 22 51
102 18 49
103 16 48
104 20 55
105 18 53
106 14 50
107 15 51
108 16 54
109 28 33
110 33 38
111 30 50
112 13 40
113 15 36
114 18 31
115 25 37
116 30 46
117 25 52
118 16 33
119 25 35
120 5 40
121 5 50
PICKUP_AND_DELIVERY_SECTION
1 0 0 10000000 0 0 0
2 0 0 10000000 0 2400 100
3 0 0 10000000 0 616 84
4 0 0 10000000 0 1090 210
5 0 0 10000000 0 506 94
6 0 0 10000000 0 1084 316
7 0 0 10000000 0 359 141
8 0 0 10000000 0 809 291
9 0 0 10000000 0 1528 372
10 0 0 10000000 0 400 100
11 0 0 10000000 0 1235 265
12 0 0 10000000 0 1286 214
13 0 0 10000000 0 1483 217
14 0 0 10000000 0 1138 163
15 0 0 10000000 0 1108 92
16 0 0 10000000 0 1650 150
17 0 0 10000000 0 1193 107
18 0 0 10000000 0 1603 197
19 0 0 10000000 0 400 800
20 0 0 10000000 0 1566 134
21 0 0 10000000 0 347 53
22 0 0 10000000 0 580 120
23 0 0 10000000 0 1154 46
24 0 0 10000000 0 1150 150
25 0 0 10000000 0 770 30
26 0 0 10000000 0 1499 101
27 0 0 10000000 0 1291 209
28 0 0 10000000 0 578 22
29 0 0 10000000 0 457 43
30 0 0 10000000 0 750 150
31 0 0 10000000 0 1061 39
32 0 0 10000000 0 940 60
33 0 0 10000000 0 268 32
34 0 0 10000000 0 692 8
35 0 0 10000000 0 189 11
36 0 0 10000000 0 362 38
37 0 0 10000000 0 368 32
38 0 0 10000000 0 942 858
39 0 0 10000000 0 684 716
40 0 0 10000000 0 558 642
41 0 0 10000000 0 600 1100
42 0 0 10000000 0 1034 966
43 0 0 10000000 0 676 724
44 0 0 10000000 0 665 935
45 0 0 10000000 0 543 457
46 0 0 10000000 0 391 509
47 0 0 10000000 0 609 491
48 0 0 10000000 0 372 328
49 0 0 10000000 0 636 664
50 0 0 10000000 0 281 219
51 0 0 10000000 0 214 186
52 0 0 10000000 0 1039 1061
53 0 0 10000000 0 47 1253
54 0 0 10000000 0 0 1100
55 0 0 10000000 0 56 1144
56 0 0 10000000 0 0 1400
57 0 0 10000000 0 45 955
58 0 0 10000000 0 64 736
59 0 0 10000000 0 18 1582
60 0 0 10000000 0 274 1626
61 0 0 10000000 0 11 489
62 0 0 10000000 0 201 1499
63 0 0 10000000 0 68 632
64 0 0 10000000 0 69 1531
65 0 0 10000000 0 119 1281
66 0 0 10000000 0 268 1432
67 0 0 10000000 0 131 1169
68 0 0 10000000 0 942 758
69 0 0 10000000 0 488 813
70 0 0 10000000 0 824 576
71 0 0 10000000 0 956 644
72 0 0 10000000 0 342 358
73 0 0 10000000 0 628 672
74 0 0 10000000 0 401 499
75 0 0 10000000 0 518 582
76 0 0 10000000 0 1691 1809
77 0 0 10000000 0 211 289
78 0 0 10000000 0 1153 1647
79 0 0 10000000 0 302 398
80 0 0 10000000 0 112 188
81 0 0 10000000 0 400 600
82 0 0 10000000 0 500 200
83 0 0 10000000 0 900 300
84 0 0 10000000 0 440 660
85 0 0 10000000 0 514 486
86 0 0 10000000 0 463 337
87 0 0 10000000 0 715 385
88 0 0 10000000 0 1350 750
89 0 0 10000000 0 295 105
90 0 0 10000000 0 825 675
91 0 0 10000000 0 738 862
92 0 0 10000000 0 200 200
93 0 0 10000000 0 898 702
94 0 0 10000000 0 382 318
95 0 0 10000000 0 500 500
96 0 0 10000000 0 580 320
97 0 0 10000000 0 611 489
98 0 0 10000000 0 756 944
99 0 0 10000000 0 545 655
100 0 0 10000000 0 660 440
101 0 0 10000000 0 398 302
102 0 0 10000000 0 569 331
103 0 0 10000000 0 733 367
104 0 0 10000000 0 764 436
105 0 0 10000000 0 462 238
106 0 0 10000000 0 576 224
107 0 0 10000000 0 424 176
108 0 0 10000000 0 352 148
109 0 0 10000000 0 182 1018
110 0 0 10000000 0 171 1129
111 0 0 10000000 0 280 420
112 0 0 10000000 0 473 228
113 0 0 10000000 0 467 333
114 0 0 10000000 0 461 639
115 0 0 10000000 0 422 878
116 0 0 10000000 0 383 717
117 0 0 10000000 0 519 481
118 0 0 10000000 0 361 339
119 0 0 10000000 0 114 286
120 0 0 10000000 0 1750 250
121 0 0 10000000 0 1170 130
DEPOT_SECTION
1 
-1
EOF
